p cnf 35 117
c p weight 14 -1 0
c p weight -14 1 0
c p weight 16 6.12323399573676603586882014729198302312846062338790031898128063403419218957424163818359375E-17 0
c p weight -16 1 0
c p weight 17 1 0
c p weight -17 1 0
c p weight 18 -1 0
c p weight -18 1 0
c p weight 20 -1 0
c p weight -20 1 0
c p weight 23 -1 0
c p weight -23 1 0
c p weight 26 -1 0
c p weight -26 1 0
c p weight 29 -1 0
c p weight -29 1 0
c p weight 32 -1 0
c p weight -32 1 0
c p weight 35 -1 0
c p weight -35 1 0
-11 0
-9 0
-7 0
-5 0
-3 0
-1 0
13 11 -12 0
13 -11 12 0
-13 11 12 0
-13 -11 -12 0
-14 11 0
-14 12 0
14 -11 -12 0
15 -11 13 0
-15 11 13 0
-16 13 0
15 -16 -11 0
-15 -16 11 0
15 16 11 -13 0
-15 16 -11 -13 0
-17 13 0
15 -17 11 0
-15 -17 -11 0
15 17 -11 -13 0
-15 17 11 -13 0
-18 15 0
-18 13 0
-18 -11 0
18 -15 11 -13 0
19 15 -13 0
19 -15 13 0
-19 15 13 0
-19 -15 -13 0
-20 15 0
-20 13 0
20 -15 -13 0
21 15 -9 0
21 -15 9 0
-21 15 9 0
-21 -15 -9 0
22 19 -10 0
22 -19 10 0
-22 19 10 0
-22 -19 -10 0
-23 15 0
-23 10 0
-23 9 -19 0
-23 -9 19 0
23 -15 9 19 -10 0
23 -15 -9 -19 -10 0
24 21 -7 0
24 -21 7 0
-24 21 7 0
-24 -21 -7 0
25 10 -8 0
25 -10 8 0
-25 10 8 0
-25 -10 -8 0
-26 21 0
-26 8 0
-26 7 -10 0
-26 -7 10 0
26 -21 7 10 -8 0
26 -21 -7 -10 -8 0
27 24 -5 0
27 -24 5 0
-27 24 5 0
-27 -24 -5 0
28 8 -6 0
28 -8 6 0
-28 8 6 0
-28 -8 -6 0
-29 24 0
-29 6 0
-29 5 -8 0
-29 -5 8 0
29 -24 5 8 -6 0
29 -24 -5 -8 -6 0
30 27 -3 0
30 -27 3 0
-30 27 3 0
-30 -27 -3 0
31 6 -4 0
31 -6 4 0
-31 6 4 0
-31 -6 -4 0
-32 27 0
-32 4 0
-32 3 -6 0
-32 -3 6 0
32 -27 3 6 -4 0
32 -27 -3 -6 -4 0
33 30 -1 0
33 -30 1 0
-33 30 1 0
-33 -30 -1 0
34 4 -2 0
34 -4 2 0
-34 4 2 0
-34 -4 -2 0
-35 30 0
-35 2 0
-35 1 -4 0
-35 -1 4 0
35 -30 1 4 -2 0
35 -30 -1 -4 -2 0
-33 0
-30 0
-34 0
-27 0
-31 0
-24 0
-28 0
-21 0
-25 0
-15 0
-22 0
